=obj=                10
pw                   10
y_1_0                0
y_2_0                0
y_4_0                0
y_7_0                0
y_9_0                0
y_13_0               0
y_15_0               0
y_18_0               0
y_20_0               0
y_3_0                0
y_6_0                0
y_8_0                0
y_12_0               0
y_14_0               0
y_17_0               0
y_19_0               0
y_5_0                0
y_10_0               0
y_16_0               0
y_21_0               0
y_11_0               0
y_22_0               0
y_23_0               0
y_1_1                0
y_2_1                0
y_4_1                0
y_7_1                0
y_9_1                0
y_13_1               0
y_15_1               0
y_18_1               0
y_20_1               0
y_3_1                0
y_6_1                0
y_8_1                0
y_12_1               0
y_14_1               0
y_17_1               0
y_19_1               0
y_5_1                0
y_10_1               0
y_16_1               0
y_21_1               0
y_11_1               0
y_22_1               0
y_23_1               0
y_1_2                0
y_2_2                0
y_4_2                0
y_7_2                0
y_9_2                0
y_13_2               0
y_15_2               0
y_18_2               0
y_20_2               0
y_3_2                0
y_6_2                0
y_8_2                0
y_12_2               0
y_14_2               0
y_17_2               0
y_19_2               0
y_5_2                0
y_10_2               0
y_16_2               0
y_21_2               0
y_11_2               0
y_22_2               0
y_23_2               0
y_1_3                0
y_2_3                0
y_4_3                0
y_7_3                0
y_9_3                0
y_13_3               0
y_15_3               0
y_18_3               0
y_20_3               0
y_3_3                0
y_6_3                0
y_8_3                0
y_12_3               0
y_14_3               0
y_17_3               0
y_19_3               0
y_5_3                0
y_10_3               0
y_16_3               0
y_21_3               0
y_11_3               0
y_22_3               0
y_23_3               0
y_1_4                0
y_2_4                0
y_4_4                0
y_7_4                0
y_9_4                0
y_13_4               0
y_15_4               0
y_18_4               0
y_20_4               0
y_3_4                0
y_6_4                0
y_8_4                0
y_12_4               0
y_14_4               0
y_17_4               0
y_19_4               0
y_5_4                0
y_10_4               0
y_16_4               0
y_21_4               0
y_11_4               0
y_22_4               0
y_23_4               0
y_1_5                0
y_2_5                0
y_4_5                0
y_7_5                0
y_9_5                0
y_13_5               0
y_15_5               0
y_18_5               0
y_20_5               0
y_3_5                0
y_6_5                0
y_8_5                0
y_12_5               0
y_14_5               0
y_17_5               0
y_19_5               0
y_5_5                0
y_10_5               0
y_16_5               0
y_21_5               0
y_11_5               0
y_22_5               0
y_23_5               0
y_1_6                0
y_2_6                0
y_4_6                0
y_7_6                0
y_9_6                0
y_13_6               0
y_15_6               0
y_18_6               0
y_20_6               0
y_3_6                0
y_6_6                0
y_8_6                0
y_12_6               0
y_14_6               0
y_17_6               0
y_19_6               0
y_5_6                0
y_10_6               0
y_16_6               0
y_21_6               0
y_11_6               0
y_22_6               0
y_23_6               0
y_1_7                0
y_2_7                0
y_4_7                0
y_7_7                0
y_9_7                0
y_13_7               0
y_15_7               0
y_18_7               0
y_20_7               0
y_3_7                0
y_6_7                0
y_8_7                0
y_12_7               0
y_14_7               0
y_17_7               0
y_19_7               0
y_5_7                0
y_10_7               0
y_16_7               0
y_21_7               0
y_11_7               0
y_22_7               0
y_23_7               0
y_1_8                0
y_2_8                0
y_4_8                0
y_7_8                0
y_9_8                0
y_13_8               0
y_15_8               0
y_18_8               0
y_20_8               0
y_3_8                0
y_6_8                0
y_8_8                0
y_12_8               0
y_14_8               0
y_17_8               0
y_19_8               0
y_5_8                0
y_10_8               0
y_16_8               0
y_21_8               0
y_11_8               0
y_22_8               0
y_23_8               0
y_1_9                0
y_2_9                0
y_4_9                0
y_7_9                0
y_9_9                0
y_13_9               0
y_15_9               0
y_18_9               0
y_20_9               0
y_3_9                0
y_6_9                0
y_8_9                0
y_12_9               0
y_14_9               0
y_17_9               0
y_19_9               0
y_5_9                0
y_10_9               0
y_16_9               0
y_21_9               0
y_11_9               0
y_22_9               0
y_23_9               0
y_1_10               0
y_2_10               0
y_4_10               0
y_7_10               0
y_9_10               0
y_13_10              0
y_15_10              0
y_18_10              0
y_20_10              0
y_3_10               0
y_6_10               0
y_8_10               0
y_12_10              0
y_14_10              0
y_17_10              0
y_19_10              0
y_5_10               0
y_10_10              0
y_16_10              0
y_21_10              0
y_11_10              0
y_22_10              0
y_23_10              0
y_1_11               0
y_2_11               0
y_4_11               0
y_7_11               0
y_9_11               0
y_13_11              0
y_15_11              0
y_18_11              0
y_20_11              0
y_3_11               0
y_6_11               0
y_8_11               0
y_12_11              0
y_14_11              0
y_17_11              0
y_19_11              0
y_5_11               0
y_10_11              0
y_16_11              1
y_21_11              0
y_11_11              0
y_22_11              0
y_23_11              0
y_1_12               0
y_2_12               0
y_4_12               0
y_7_12               0
y_9_12               0
y_13_12              1
y_15_12              0
y_18_12              0
y_20_12              0
y_3_12               0
y_6_12               0
y_8_12               0
y_12_12              0
y_14_12              0
y_17_12              0
y_19_12              0
y_5_12               0
y_10_12              0
y_16_12              1
y_21_12              0
y_11_12              0
y_22_12              0
y_23_12              0
y_1_13               0
y_2_13               0
y_4_13               0
y_7_13               0
y_9_13               0
y_13_13              1
y_15_13              0
y_18_13              0
y_20_13              0
y_3_13               0
y_6_13               0
y_8_13               1
y_12_13              0
y_14_13              0
y_17_13              0
y_19_13              0
y_5_13               0
y_10_13              0
y_16_13              1
y_21_13              0
y_11_13              0
y_22_13              0
y_23_13              0
y_1_14               0
y_2_14               0
y_4_14               0
y_7_14               0
y_9_14               0
y_13_14              1
y_15_14              0
y_18_14              0
y_20_14              0
y_3_14               0
y_6_14               1
y_8_14               1
y_12_14              0
y_14_14              0
y_17_14              0
y_19_14              0
y_5_14               0
y_10_14              0
y_16_14              1
y_21_14              0
y_11_14              0
y_22_14              0
y_23_14              0
y_1_15               0
y_2_15               0
y_4_15               0
y_7_15               0
y_9_15               1
y_13_15              1
y_15_15              0
y_18_15              0
y_20_15              0
y_3_15               0
y_6_15               1
y_8_15               1
y_12_15              0
y_14_15              0
y_17_15              0
y_19_15              0
y_5_15               0
y_10_15              0
y_16_15              1
y_21_15              0
y_11_15              0
y_22_15              0
y_23_15              0
y_1_16               0
y_2_16               0
y_4_16               0
y_7_16               0
y_9_16               1
y_13_16              1
y_15_16              0
y_18_16              0
y_20_16              0
y_3_16               0
y_6_16               1
y_8_16               1
y_12_16              1
y_14_16              0
y_17_16              0
y_19_16              0
y_5_16               0
y_10_16              0
y_16_16              1
y_21_16              0
y_11_16              0
y_22_16              0
y_23_16              0
y_1_17               0
y_2_17               0
y_4_17               0
y_7_17               1
y_9_17               1
y_13_17              1
y_15_17              0
y_18_17              0
y_20_17              0
y_3_17               0
y_6_17               1
y_8_17               1
y_12_17              1
y_14_17              0
y_17_17              0
y_19_17              0
y_5_17               0
y_10_17              0
y_16_17              1
y_21_17              0
y_11_17              0
y_22_17              0
y_23_17              0
y_1_18               0
y_2_18               0
y_4_18               0
y_7_18               1
y_9_18               1
y_13_18              1
y_15_18              1
y_18_18              0
y_20_18              0
y_3_18               0
y_6_18               1
y_8_18               1
y_12_18              1
y_14_18              1
y_17_18              0
y_19_18              0
y_5_18               0
y_10_18              1
y_16_18              1
y_21_18              0
y_11_18              0
y_22_18              1
y_23_18              0
y_1_19               0
y_2_19               0
y_4_19               0
y_7_19               1
y_9_19               1
y_13_19              1
y_15_19              1
y_18_19              0
y_20_19              0
y_3_19               0
y_6_19               1
y_8_19               1
y_12_19              1
y_14_19              1
y_17_19              0
y_19_19              1
y_5_19               0
y_10_19              1
y_16_19              1
y_21_19              0
y_11_19              0
y_22_19              1
y_23_19              0
y_1_20               0
y_2_20               0
y_4_20               0
y_7_20               1
y_9_20               1
y_13_20              1
y_15_20              1
y_18_20              0
y_20_20              0
y_3_20               0
y_6_20               1
y_8_20               1
y_12_20              1
y_14_20              1
y_17_20              0
y_19_20              1
y_5_20               0
y_10_20              1
y_16_20              1
y_21_20              1
y_11_20              0
y_22_20              1
y_23_20              0
y_1_21               0
y_2_21               1
y_4_21               1
y_7_21               1
y_9_21               1
y_13_21              1
y_15_21              1
y_18_21              0
y_20_21              0
y_3_21               0
y_6_21               1
y_8_21               1
y_12_21              1
y_14_21              1
y_17_21              1
y_19_21              1
y_5_21               0
y_10_21              1
y_16_21              1
y_21_21              1
y_11_21              0
y_22_21              1
y_23_21              0
y_1_22               0
y_2_22               1
y_4_22               1
y_7_22               1
y_9_22               1
y_13_22              1
y_15_22              1
y_18_22              0
y_20_22              1
y_3_22               0
y_6_22               1
y_8_22               1
y_12_22              1
y_14_22              1
y_17_22              1
y_19_22              1
y_5_22               1
y_10_22              1
y_16_22              1
y_21_22              1
y_11_22              0
y_22_22              1
y_23_22              0
x_1_0                0
x_1_1                0
x_1_2                0
x_1_3                0
x_1_4                0
x_1_5                0
x_1_6                0
x_1_7                0
x_1_8                0
x_1_9                0
x_1_10               1
x_1_11               0
x_1_12               0
x_1_13               0
x_1_14               0
x_1_15               0
x_1_16               0
x_1_17               0
x_1_18               0
x_1_19               0
x_1_20               0
x_1_21               0
x_1_22               0
x_2_0                0
x_2_1                0
x_2_2                1
x_2_3                0
x_2_4                0
x_2_5                0
x_2_6                0
x_2_7                0
x_2_8                0
x_2_9                0
x_2_10               0
x_2_11               0
x_2_12               0
x_2_13               0
x_2_14               0
x_2_15               0
x_2_16               0
x_2_17               0
x_2_18               0
x_2_19               0
x_2_20               0
x_2_21               0
x_2_22               0
x_4_0                0
x_4_1                0
x_4_2                0
x_4_3                0
x_4_4                0
x_4_5                1
x_4_6                0
x_4_7                0
x_4_8                0
x_4_9                0
x_4_10               0
x_4_11               0
x_4_12               0
x_4_13               0
x_4_14               0
x_4_15               0
x_4_16               0
x_4_17               0
x_4_18               0
x_4_19               0
x_4_20               0
x_4_21               0
x_4_22               0
x_7_0                0
x_7_1                0
x_7_2                0
x_7_3                0
x_7_4                0
x_7_5                0
x_7_6                0
x_7_7                0
x_7_8                0
x_7_9                0
x_7_10               0
x_7_11               0
x_7_12               0
x_7_13               0
x_7_14               0
x_7_15               1
x_7_16               0
x_7_17               0
x_7_18               0
x_7_19               0
x_7_20               0
x_7_21               0
x_7_22               0
x_9_0                0
x_9_1                0
x_9_2                0
x_9_3                1
x_9_4                0
x_9_5                0
x_9_6                0
x_9_7                0
x_9_8                0
x_9_9                0
x_9_10               0
x_9_11               0
x_9_12               0
x_9_13               0
x_9_14               0
x_9_15               0
x_9_16               0
x_9_17               0
x_9_18               0
x_9_19               0
x_9_20               0
x_9_21               0
x_9_22               0
x_13_0               0
x_13_1               1
x_13_2               0
x_13_3               0
x_13_4               0
x_13_5               0
x_13_6               0
x_13_7               0
x_13_8               0
x_13_9               0
x_13_10              0
x_13_11              0
x_13_12              0
x_13_13              0
x_13_14              0
x_13_15              0
x_13_16              0
x_13_17              0
x_13_18              0
x_13_19              0
x_13_20              0
x_13_21              0
x_13_22              0
x_15_0               0
x_15_1               0
x_15_2               0
x_15_3               0
x_15_4               0
x_15_5               0
x_15_6               0
x_15_7               0
x_15_8               0
x_15_9               0
x_15_10              0
x_15_11              0
x_15_12              0
x_15_13              1
x_15_14              0
x_15_15              0
x_15_16              0
x_15_17              0
x_15_18              0
x_15_19              0
x_15_20              0
x_15_21              0
x_15_22              0
x_18_0               0
x_18_1               0
x_18_2               0
x_18_3               0
x_18_4               0
x_18_5               0
x_18_6               0
x_18_7               0
x_18_8               0
x_18_9               0
x_18_10              0
x_18_11              0
x_18_12              0
x_18_13              0
x_18_14              0
x_18_15              0
x_18_16              0
x_18_17              0
x_18_18              0
x_18_19              0
x_18_20              0
x_18_21              0
x_18_22              1
x_20_0               0
x_20_1               0
x_20_2               0
x_20_3               0
x_20_4               0
x_20_5               0
x_20_6               0
x_20_7               0
x_20_8               0
x_20_9               0
x_20_10              0
x_20_11              0
x_20_12              0
x_20_13              0
x_20_14              0
x_20_15              0
x_20_16              0
x_20_17              0
x_20_18              0
x_20_19              0
x_20_20              0
x_20_21              1
x_20_22              0
x_3_0                0
x_3_1                0
x_3_2                0
x_3_3                0
x_3_4                1
x_3_5                0
x_3_6                0
x_3_7                0
x_3_8                0
x_3_9                0
x_3_10               0
x_3_11               0
x_3_12               0
x_3_13               0
x_3_14               0
x_3_15               0
x_3_16               0
x_3_17               0
x_3_18               0
x_3_19               0
x_3_20               0
x_3_21               0
x_3_22               0
x_6_0                0
x_6_1                0
x_6_2                0
x_6_3                0
x_6_4                0
x_6_5                0
x_6_6                1
x_6_7                0
x_6_8                0
x_6_9                0
x_6_10               0
x_6_11               0
x_6_12               0
x_6_13               0
x_6_14               0
x_6_15               0
x_6_16               0
x_6_17               0
x_6_18               0
x_6_19               0
x_6_20               0
x_6_21               0
x_6_22               0
x_8_0                0
x_8_1                0
x_8_2                0
x_8_3                0
x_8_4                0
x_8_5                0
x_8_6                0
x_8_7                0
x_8_8                0
x_8_9                1
x_8_10               0
x_8_11               0
x_8_12               0
x_8_13               0
x_8_14               0
x_8_15               0
x_8_16               0
x_8_17               0
x_8_18               0
x_8_19               0
x_8_20               0
x_8_21               0
x_8_22               0
x_12_0               0
x_12_1               0
x_12_2               0
x_12_3               0
x_12_4               0
x_12_5               0
x_12_6               0
x_12_7               0
x_12_8               0
x_12_9               0
x_12_10              0
x_12_11              0
x_12_12              0
x_12_13              0
x_12_14              1
x_12_15              0
x_12_16              0
x_12_17              0
x_12_18              0
x_12_19              0
x_12_20              0
x_12_21              0
x_12_22              0
x_14_0               0
x_14_1               0
x_14_2               0
x_14_3               0
x_14_4               0
x_14_5               0
x_14_6               0
x_14_7               0
x_14_8               0
x_14_9               0
x_14_10              0
x_14_11              0
x_14_12              0
x_14_13              0
x_14_14              0
x_14_15              0
x_14_16              1
x_14_17              0
x_14_18              0
x_14_19              0
x_14_20              0
x_14_21              0
x_14_22              0
x_17_0               0
x_17_1               0
x_17_2               0
x_17_3               0
x_17_4               0
x_17_5               0
x_17_6               0
x_17_7               0
x_17_8               0
x_17_9               0
x_17_10              0
x_17_11              0
x_17_12              0
x_17_13              0
x_17_14              0
x_17_15              0
x_17_16              0
x_17_17              0
x_17_18              0
x_17_19              0
x_17_20              1
x_17_21              0
x_17_22              0
x_19_0               0
x_19_1               0
x_19_2               0
x_19_3               0
x_19_4               0
x_19_5               0
x_19_6               0
x_19_7               0
x_19_8               0
x_19_9               0
x_19_10              0
x_19_11              0
x_19_12              0
x_19_13              0
x_19_14              0
x_19_15              0
x_19_16              0
x_19_17              0
x_19_18              1
x_19_19              0
x_19_20              0
x_19_21              0
x_19_22              0
x_5_0                0
x_5_1                0
x_5_2                0
x_5_3                0
x_5_4                0
x_5_5                0
x_5_6                0
x_5_7                0
x_5_8                0
x_5_9                0
x_5_10               0
x_5_11               0
x_5_12               1
x_5_13               0
x_5_14               0
x_5_15               0
x_5_16               0
x_5_17               0
x_5_18               0
x_5_19               0
x_5_20               0
x_5_21               0
x_5_22               0
x_10_0               0
x_10_1               0
x_10_2               0
x_10_3               0
x_10_4               0
x_10_5               0
x_10_6               0
x_10_7               0
x_10_8               0
x_10_9               0
x_10_10              0
x_10_11              0
x_10_12              0
x_10_13              0
x_10_14              0
x_10_15              0
x_10_16              0
x_10_17              1
x_10_18              0
x_10_19              0
x_10_20              0
x_10_21              0
x_10_22              0
x_16_0               1
x_16_1               0
x_16_2               0
x_16_3               0
x_16_4               0
x_16_5               0
x_16_6               0
x_16_7               0
x_16_8               0
x_16_9               0
x_16_10              0
x_16_11              0
x_16_12              0
x_16_13              0
x_16_14              0
x_16_15              0
x_16_16              0
x_16_17              0
x_16_18              0
x_16_19              0
x_16_20              0
x_16_21              0
x_16_22              0
x_21_0               0
x_21_1               0
x_21_2               0
x_21_3               0
x_21_4               0
x_21_5               0
x_21_6               0
x_21_7               0
x_21_8               0
x_21_9               0
x_21_10              0
x_21_11              0
x_21_12              0
x_21_13              0
x_21_14              0
x_21_15              0
x_21_16              0
x_21_17              0
x_21_18              0
x_21_19              1
x_21_20              0
x_21_21              0
x_21_22              0
x_11_0               0
x_11_1               0
x_11_2               0
x_11_3               0
x_11_4               0
x_11_5               0
x_11_6               0
x_11_7               0
x_11_8               0
x_11_9               0
x_11_10              0
x_11_11              1
x_11_12              0
x_11_13              0
x_11_14              0
x_11_15              0
x_11_16              0
x_11_17              0
x_11_18              0
x_11_19              0
x_11_20              0
x_11_21              0
x_11_22              0
x_22_0               0
x_22_1               0
x_22_2               0
x_22_3               0
x_22_4               0
x_22_5               0
x_22_6               0
x_22_7               0
x_22_8               1
x_22_9               0
x_22_10              0
x_22_11              0
x_22_12              0
x_22_13              0
x_22_14              0
x_22_15              0
x_22_16              0
x_22_17              0
x_22_18              0
x_22_19              0
x_22_20              0
x_22_21              0
x_22_22              0
x_23_0               0
x_23_1               0
x_23_2               0
x_23_3               0
x_23_4               0
x_23_5               0
x_23_6               0
x_23_7               1
x_23_8               0
x_23_9               0
x_23_10              0
x_23_11              0
x_23_12              0
x_23_13              0
x_23_14              0
x_23_15              0
x_23_16              0
x_23_17              0
x_23_18              0
x_23_19              0
x_23_20              0
x_23_21              0
x_23_22              0
